NAME : tsp30_14.181.tour
COMMENT : Length = 181
COMMENT : Found by LKH [Keld Helsgaun]
TYPE : TOUR
DIMENSION : 30
TOUR_SECTION
1
19
25
5
14
11
20
17
23
28
6
10
13
18
22
9
3
24
4
2
26
27
16
15
30
12
7
8
21
29
-1
EOF
